data/lp_files/q3/59_5.lp
\ Model foo
\ LP format - for model browsing. Use MPS format to capture full model detail.
Minimize
  z
Subject To
 allocateEach[1]: x[1,1] + x[2,1] + x[3,1] = 1
 allocateEach[2]: x[1,2] + x[2,2] + x[3,2] = 1
 allocateEach[3]: x[1,3] + x[2,3] + x[3,3] = 1
 allocateEach[4]: x[1,4] + x[2,4] + x[3,4] = 1
 allocateEach[5]: x[1,5] + x[2,5] + x[3,5] = 1
 allocateEach[6]: x[1,6] + x[2,6] + x[3,6] = 1
 allocateEach[7]: x[1,7] + x[2,7] + x[3,7] = 1
 allocateEach[8]: x[1,8] + x[2,8] + x[3,8] = 1
 allocateEach[9]: x[1,9] + x[2,9] + x[3,9] = 1
 allocateEach[10]: x[1,10] + x[2,10] + x[3,10] = 1
 allocateEach[11]: x[1,11] + x[2,11] + x[3,11] = 1
 allocateEach[12]: x[1,12] + x[2,12] + x[3,12] = 1
 allocateEach[13]: x[1,13] + x[2,13] + x[3,13] = 1
 allocateEach[14]: x[1,14] + x[2,14] + x[3,14] = 1
 allocateEach[15]: x[1,15] + x[2,15] + x[3,15] = 1
 allocateEach[16]: x[1,16] + x[2,16] + x[3,16] = 1
 allocateEach[17]: x[1,17] + x[2,17] + x[3,17] = 1
 allocateEach[18]: x[1,18] + x[2,18] + x[3,18] = 1
 allocateEach[19]: x[1,19] + x[2,19] + x[3,19] = 1
 allocateAllCash: cashProportion[1] + cashProportion[2] + cashProportion[3]
   = 1
 findWorstP[1,2]: z + 0.0277849812914459 cashProportion[1]
   - 0.0277849812914459 cashProportion[2] + 0.0871892712925573 x[1,1]
   + 0.0900696476864372 x[1,2] + 0.0233301226243841 x[1,3]
   + 0.0606823991405179 x[1,4] + 0.016448708924536 x[1,5]
   + 0.0842070166339421 x[1,6] + 0.0665820768347349 x[1,7]
   + 0.0738061719705109 x[1,8] + 0.00153743563146001 x[1,9]
   + 0.0729355758900456 x[1,10] + 0.00452895195050569 x[1,11]
   + 0.0832160189678806 x[1,12] + 1.9449486904012152e-04 x[1,13]
   + 0.0316934019931093 x[1,14] + 0.0606175675175045 x[1,15]
   + 0.0280350461230689 x[1,16] + 0.0244970918386248 x[1,17]
   + 0.0874022894824584 x[1,18] + 0.0752417293372356 x[1,19]
   - 0.0871892712925573 x[2,1] - 0.0900696476864372 x[2,2]
   - 0.0233301226243841 x[2,3] - 0.0606823991405179 x[2,4]
   - 0.016448708924536 x[2,5] - 0.0842070166339421 x[2,6]
   - 0.0665820768347349 x[2,7] - 0.0738061719705109 x[2,8]
   - 0.00153743563146001 x[2,9] - 0.0729355758900456 x[2,10]
   - 0.00452895195050569 x[2,11] - 0.0832160189678806 x[2,12]
   - 1.9449486904012152e-04 x[2,13] - 0.0316934019931093 x[2,14]
   - 0.0606175675175045 x[2,15] - 0.0280350461230689 x[2,16]
   - 0.0244970918386248 x[2,17] - 0.0874022894824584 x[2,18]
   - 0.0752417293372356 x[2,19] >= 0
 findWorstP[1,3]: z + 0.0277849812914459 cashProportion[1]
   - 0.0277849812914459 cashProportion[3] + 0.0871892712925573 x[1,1]
   + 0.0900696476864372 x[1,2] + 0.0233301226243841 x[1,3]
   + 0.0606823991405179 x[1,4] + 0.016448708924536 x[1,5]
   + 0.0842070166339421 x[1,6] + 0.0665820768347349 x[1,7]
   + 0.0738061719705109 x[1,8] + 0.00153743563146001 x[1,9]
   + 0.0729355758900456 x[1,10] + 0.00452895195050569 x[1,11]
   + 0.0832160189678806 x[1,12] + 1.9449486904012152e-04 x[1,13]
   + 0.0316934019931093 x[1,14] + 0.0606175675175045 x[1,15]
   + 0.0280350461230689 x[1,16] + 0.0244970918386248 x[1,17]
   + 0.0874022894824584 x[1,18] + 0.0752417293372356 x[1,19]
   - 0.0871892712925573 x[3,1] - 0.0900696476864372 x[3,2]
   - 0.0233301226243841 x[3,3] - 0.0606823991405179 x[3,4]
   - 0.016448708924536 x[3,5] - 0.0842070166339421 x[3,6]
   - 0.0665820768347349 x[3,7] - 0.0738061719705109 x[3,8]
   - 0.00153743563146001 x[3,9] - 0.0729355758900456 x[3,10]
   - 0.00452895195050569 x[3,11] - 0.0832160189678806 x[3,12]
   - 1.9449486904012152e-04 x[3,13] - 0.0316934019931093 x[3,14]
   - 0.0606175675175045 x[3,15] - 0.0280350461230689 x[3,16]
   - 0.0244970918386248 x[3,17] - 0.0874022894824584 x[3,18]
   - 0.0752417293372356 x[3,19] >= 0
 findWorstP[2,1]: z - 0.0405087904075184 cashProportion[1]
   + 0.0405087904075184 cashProportion[2] - 0.00635988 x[1,1]
   - 0.00391584973939345 x[1,2] - 0.1090361608469038 x[1,3]
   - 0.1262118879796916 x[1,4] - 0.049042642253369 x[1,5]
   - 0.0643954738178185 x[1,6] - 0.0844338221394042 x[1,7]
   - 0.0187960787490886 x[1,8] - 0.0997731507737179 x[1,9]
   - 0.0135164330659753 x[1,10] - 0.0307461719193065 x[1,11]
   - 0.00818277566231872 x[1,12] - 0.0236841394582624 x[1,13]
   - 0.0881876367171676 x[1,14] - 0.0480569283534527 x[1,15]
   - 0.0185395230765076 x[1,16] - 0.057454967727997 x[1,17]
   - 0.083866699073699 x[1,18] - 0.0252909881444273 x[1,19]
   + 0.00635988 x[2,1] + 0.00391584973939345 x[2,2]
   + 0.1090361608469038 x[2,3] + 0.1262118879796916 x[2,4]
   + 0.049042642253369 x[2,5] + 0.0643954738178185 x[2,6]
   + 0.0844338221394042 x[2,7] + 0.0187960787490886 x[2,8]
   + 0.0997731507737179 x[2,9] + 0.0135164330659753 x[2,10]
   + 0.0307461719193065 x[2,11] + 0.00818277566231872 x[2,12]
   + 0.0236841394582624 x[2,13] + 0.0881876367171676 x[2,14]
   + 0.0480569283534527 x[2,15] + 0.0185395230765076 x[2,16]
   + 0.057454967727997 x[2,17] + 0.083866699073699 x[2,18]
   + 0.0252909881444273 x[2,19] >= 0
 findWorstP[2,3]: z + 0.0405087904075184 cashProportion[2]
   - 0.0405087904075184 cashProportion[3] + 0.00635988 x[2,1]
   + 0.00391584973939345 x[2,2] + 0.1090361608469038 x[2,3]
   + 0.1262118879796916 x[2,4] + 0.049042642253369 x[2,5]
   + 0.0643954738178185 x[2,6] + 0.0844338221394042 x[2,7]
   + 0.0187960787490886 x[2,8] + 0.0997731507737179 x[2,9]
   + 0.0135164330659753 x[2,10] + 0.0307461719193065 x[2,11]
   + 0.00818277566231872 x[2,12] + 0.0236841394582624 x[2,13]
   + 0.0881876367171676 x[2,14] + 0.0480569283534527 x[2,15]
   + 0.0185395230765076 x[2,16] + 0.057454967727997 x[2,17]
   + 0.083866699073699 x[2,18] + 0.0252909881444273 x[2,19]
   - 0.00635988 x[3,1] - 0.00391584973939345 x[3,2]
   - 0.1090361608469038 x[3,3] - 0.1262118879796916 x[3,4]
   - 0.049042642253369 x[3,5] - 0.0643954738178185 x[3,6]
   - 0.0844338221394042 x[3,7] - 0.0187960787490886 x[3,8]
   - 0.0997731507737179 x[3,9] - 0.0135164330659753 x[3,10]
   - 0.0307461719193065 x[3,11] - 0.00818277566231872 x[3,12]
   - 0.0236841394582624 x[3,13] - 0.0881876367171676 x[3,14]
   - 0.0480569283534527 x[3,15] - 0.0185395230765076 x[3,16]
   - 0.057454967727997 x[3,17] - 0.083866699073699 x[3,18]
   - 0.0252909881444273 x[3,19] >= 0
 findWorstP[3,1]: z - 0.0221234043494613 cashProportion[1]
   + 0.0221234043494613 cashProportion[3] - 0.0299108426804717 x[1,1]
   - 0.0206411362580474 x[1,2] - 0.0048007787438331 x[1,3]
   - 0.059438213018886 x[1,4] - 0.0523292257545925 x[1,5]
   - 0.0605222598320096 x[1,6] - 0.0483175150992235 x[1,7]
   - 0.0555076215127984 x[1,8] - 0.0611048428132121 x[1,9]
   - 0.0394755278275554 x[1,10] - 0.0425506810321306 x[1,11]
   - 0.06488794495697 x[1,12] - 0.0703892981718694 x[1,13]
   - 0.0689365279529214 x[1,14] - 0.0703892981718694 x[1,15]
   - 0.0701680641283748 x[1,16] - 0.0406111959174945 x[1,17]
   - 0.0684350641210003 x[1,18] - 0.049460557657279 x[1,19]
   + 0.0299108426804717 x[3,1] + 0.0206411362580474 x[3,2]
   + 0.0048007787438331 x[3,3] + 0.059438213018886 x[3,4]
   + 0.0523292257545925 x[3,5] + 0.0605222598320096 x[3,6]
   + 0.0483175150992235 x[3,7] + 0.0555076215127984 x[3,8]
   + 0.0611048428132121 x[3,9] + 0.0394755278275554 x[3,10]
   + 0.0425506810321306 x[3,11] + 0.06488794495697 x[3,12]
   + 0.0703892981718694 x[3,13] + 0.0689365279529214 x[3,14]
   + 0.0703892981718694 x[3,15] + 0.0701680641283748 x[3,16]
   + 0.0406111959174945 x[3,17] + 0.0684350641210003 x[3,18]
   + 0.049460557657279 x[3,19] >= 0
 findWorstP[3,2]: z - 0.0221234043494613 cashProportion[2]
   + 0.0221234043494613 cashProportion[3] - 0.0299108426804717 x[2,1]
   - 0.0206411362580474 x[2,2] - 0.0048007787438331 x[2,3]
   - 0.059438213018886 x[2,4] - 0.0523292257545925 x[2,5]
   - 0.0605222598320096 x[2,6] - 0.0483175150992235 x[2,7]
   - 0.0555076215127984 x[2,8] - 0.0611048428132121 x[2,9]
   - 0.0394755278275554 x[2,10] - 0.0425506810321306 x[2,11]
   - 0.06488794495697 x[2,12] - 0.0703892981718694 x[2,13]
   - 0.0689365279529214 x[2,14] - 0.0703892981718694 x[2,15]
   - 0.0701680641283748 x[2,16] - 0.0406111959174945 x[2,17]
   - 0.0684350641210003 x[2,18] - 0.049460557657279 x[2,19]
   + 0.0299108426804717 x[3,1] + 0.0206411362580474 x[3,2]
   + 0.0048007787438331 x[3,3] + 0.059438213018886 x[3,4]
   + 0.0523292257545925 x[3,5] + 0.0605222598320096 x[3,6]
   + 0.0483175150992235 x[3,7] + 0.0555076215127984 x[3,8]
   + 0.0611048428132121 x[3,9] + 0.0394755278275554 x[3,10]
   + 0.0425506810321306 x[3,11] + 0.06488794495697 x[3,12]
   + 0.0703892981718694 x[3,13] + 0.0689365279529214 x[3,14]
   + 0.0703892981718694 x[3,15] + 0.0701680641283748 x[3,16]
   + 0.0406111959174945 x[3,17] + 0.0684350641210003 x[3,18]
   + 0.049460557657279 x[3,19] >= 0
Bounds
 z <= 1
 -infinity <= cashProportion[1] <= 1
 -infinity <= cashProportion[2] <= 1
 -infinity <= cashProportion[3] <= 1
Binaries
 x[1,1] x[1,2] x[1,3] x[1,4] x[1,5] x[1,6] x[1,7] x[1,8] x[1,9] x[1,10]
 x[1,11] x[1,12] x[1,13] x[1,14] x[1,15] x[1,16] x[1,17] x[1,18] x[1,19]
 x[2,1] x[2,2] x[2,3] x[2,4] x[2,5] x[2,6] x[2,7] x[2,8] x[2,9] x[2,10]
 x[2,11] x[2,12] x[2,13] x[2,14] x[2,15] x[2,16] x[2,17] x[2,18] x[2,19]
 x[3,1] x[3,2] x[3,3] x[3,4] x[3,5] x[3,6] x[3,7] x[3,8] x[3,9] x[3,10]
 x[3,11] x[3,12] x[3,13] x[3,14] x[3,15] x[3,16] x[3,17] x[3,18] x[3,19]
End
