data/mps_files/pEFS/59_5.mps
NAME foo
ROWS
 N  OBJ
 E  allocateEach[1]
 E  allocateEach[2]
 E  allocateEach[3]
 E  allocateEach[4]
 E  allocateEach[5]
 E  allocateEach[6]
 E  allocateEach[7]
 E  allocateEach[8]
 E  allocateEach[9]
 E  allocateEach[10]
 E  allocateEach[11]
 E  allocateEach[12]
 E  allocateEach[13]
 E  allocateEach[14]
 E  allocateEach[15]
 E  allocateEach[16]
 E  allocateEach[17]
 E  allocateEach[18]
 E  allocateEach[19]
 E  allocateAllCash
 G  findWorstP[1,2]
 G  findWorstP[1,3]
 G  findWorstP[2,1]
 G  findWorstP[2,3]
 G  findWorstP[3,1]
 G  findWorstP[3,2]
COLUMNS
    z         OBJ       1
    z         findWorstP[1,2]  1
    z         findWorstP[1,3]  1
    z         findWorstP[2,1]  1
    z         findWorstP[2,3]  1
    z         findWorstP[3,1]  1
    z         findWorstP[3,2]  1
    cashProportion[1]  allocateAllCash  1
    cashProportion[1]  findWorstP[1,2]  2.7784981291445930e-02
    cashProportion[1]  findWorstP[1,3]  2.7784981291445930e-02
    cashProportion[1]  findWorstP[2,1]  -4.0508790407518432e-02
    cashProportion[1]  findWorstP[3,1]  -0.0221234043494613
    cashProportion[2]  allocateAllCash  1
    cashProportion[2]  findWorstP[1,2]  -2.7784981291445930e-02
    cashProportion[2]  findWorstP[2,1]  4.0508790407518432e-02
    cashProportion[2]  findWorstP[2,3]  4.0508790407518432e-02
    cashProportion[2]  findWorstP[3,2]  -0.0221234043494613
    cashProportion[3]  allocateAllCash  1
    cashProportion[3]  findWorstP[1,3]  -2.7784981291445930e-02
    cashProportion[3]  findWorstP[2,3]  -4.0508790407518432e-02
    cashProportion[3]  findWorstP[3,1]  0.0221234043494613
    cashProportion[3]  findWorstP[3,2]  0.0221234043494613
    MARKER    'MARKER'                 'INTORG'
    x[1,1]    allocateEach[1]  1
    x[1,1]    findWorstP[1,2]  8.7189271292557338e-02
    x[1,1]    findWorstP[1,3]  8.7189271292557338e-02
    x[1,1]    findWorstP[2,1]  -6.3598800939803947e-03
    x[1,1]    findWorstP[3,1]  -2.9910842680471679e-02
    x[1,2]    allocateEach[2]  1
    x[1,2]    findWorstP[1,2]  9.0069647686437229e-02
    x[1,2]    findWorstP[1,3]  9.0069647686437229e-02
    x[1,2]    findWorstP[2,1]  -3.9158497393934491e-03
    x[1,2]    findWorstP[3,1]  -2.0641136258047390e-02
    x[1,3]    allocateEach[3]  1
    x[1,3]    findWorstP[1,2]  0.0233301226243841
    x[1,3]    findWorstP[1,3]  0.0233301226243841
    x[1,3]    findWorstP[2,1]  -1.0903616084690378e-01
    x[1,3]    findWorstP[3,1]  -4.8007787438331022e-03
    x[1,4]    allocateEach[4]  1
    x[1,4]    findWorstP[1,2]  6.0682399140517915e-02
    x[1,4]    findWorstP[1,3]  6.0682399140517915e-02
    x[1,4]    findWorstP[2,1]  -1.2621188797969160e-01
    x[1,4]    findWorstP[3,1]  -5.9438213018886028e-02
    x[1,5]    allocateEach[5]  1
    x[1,5]    findWorstP[1,2]  1.6448708924535992e-02
    x[1,5]    findWorstP[1,3]  1.6448708924535992e-02
    x[1,5]    findWorstP[2,1]  -4.9042642253368983e-02
    x[1,5]    findWorstP[3,1]  -5.2329225754592458e-02
    x[1,6]    allocateEach[6]  1
    x[1,6]    findWorstP[1,2]  8.4207016633942131e-02
    x[1,6]    findWorstP[1,3]  8.4207016633942131e-02
    x[1,6]    findWorstP[2,1]  -6.4395473817818474e-02
    x[1,6]    findWorstP[3,1]  -6.0522259832009630e-02
    x[1,7]    allocateEach[7]  1
    x[1,7]    findWorstP[1,2]  6.6582076834734938e-02
    x[1,7]    findWorstP[1,3]  6.6582076834734938e-02
    x[1,7]    findWorstP[2,1]  -8.4433822139404244e-02
    x[1,7]    findWorstP[3,1]  -4.8317515099223475e-02
    x[1,8]    allocateEach[8]  1
    x[1,8]    findWorstP[1,2]  7.3806171970510884e-02
    x[1,8]    findWorstP[1,3]  7.3806171970510884e-02
    x[1,8]    findWorstP[2,1]  -1.8796078749088552e-02
    x[1,8]    findWorstP[3,1]  -0.0555076215127984
    x[1,9]    allocateEach[9]  1
    x[1,9]    findWorstP[1,2]  1.5374356314600082e-03
    x[1,9]    findWorstP[1,3]  1.5374356314600082e-03
    x[1,9]    findWorstP[2,1]  -0.0997731507737179
    x[1,9]    findWorstP[3,1]  -6.1104842813212108e-02
    x[1,10]   allocateEach[10]  1
    x[1,10]   findWorstP[1,2]  7.2935575890045568e-02
    x[1,10]   findWorstP[1,3]  7.2935575890045568e-02
    x[1,10]   findWorstP[2,1]  -1.3516433065975317e-02
    x[1,10]   findWorstP[3,1]  -3.9475527827555444e-02
    x[1,11]   allocateEach[11]  1
    x[1,11]   findWorstP[1,2]  4.5289519505056870e-03
    x[1,11]   findWorstP[1,3]  4.5289519505056870e-03
    x[1,11]   findWorstP[2,1]  -3.0746171919306491e-02
    x[1,11]   findWorstP[3,1]  -4.2550681032130562e-02
    x[1,12]   allocateEach[12]  1
    x[1,12]   findWorstP[1,2]  8.3216018967880556e-02
    x[1,12]   findWorstP[1,3]  8.3216018967880556e-02
    x[1,12]   findWorstP[2,1]  -8.1827756623187239e-03
    x[1,12]   findWorstP[3,1]  -6.4887944956969992e-02
    x[1,13]   allocateEach[13]  1
    x[1,13]   findWorstP[1,2]  1.9449486904012152e-04
    x[1,13]   findWorstP[1,3]  1.9449486904012152e-04
    x[1,13]   findWorstP[2,1]  -2.3684139458262445e-02
    x[1,13]   findWorstP[3,1]  -7.0389298171869369e-02
    x[1,14]   allocateEach[14]  1
    x[1,14]   findWorstP[1,2]  3.1693401993109327e-02
    x[1,14]   findWorstP[1,3]  3.1693401993109327e-02
    x[1,14]   findWorstP[2,1]  -8.8187636717167631e-02
    x[1,14]   findWorstP[3,1]  -0.0689365279529214
    x[1,15]   allocateEach[15]  1
    x[1,15]   findWorstP[1,2]  6.0617567517504536e-02
    x[1,15]   findWorstP[1,3]  6.0617567517504536e-02
    x[1,15]   findWorstP[2,1]  -0.0480569283534527
    x[1,15]   findWorstP[3,1]  -7.0389298171869369e-02
    x[1,16]   allocateEach[16]  1
    x[1,16]   findWorstP[1,2]  2.8035046123068948e-02
    x[1,16]   findWorstP[1,3]  2.8035046123068948e-02
    x[1,16]   findWorstP[2,1]  -1.8539523076507605e-02
    x[1,16]   findWorstP[3,1]  -7.0168064128374757e-02
    x[1,17]   allocateEach[17]  1
    x[1,17]   findWorstP[1,2]  2.4497091838624831e-02
    x[1,17]   findWorstP[1,3]  2.4497091838624831e-02
    x[1,17]   findWorstP[2,1]  -5.7454967727996978e-02
    x[1,17]   findWorstP[3,1]  -4.0611195917494458e-02
    x[1,18]   allocateEach[18]  1
    x[1,18]   findWorstP[1,2]  8.7402289482458415e-02
    x[1,18]   findWorstP[1,3]  8.7402289482458415e-02
    x[1,18]   findWorstP[2,1]  -0.083866699073699
    x[1,18]   findWorstP[3,1]  -6.8435064121000283e-02
    x[1,19]   allocateEach[19]  1
    x[1,19]   findWorstP[1,2]  7.5241729337235580e-02
    x[1,19]   findWorstP[1,3]  7.5241729337235580e-02
    x[1,19]   findWorstP[2,1]  -2.5290988144427342e-02
    x[1,19]   findWorstP[3,1]  -4.9460557657278977e-02
    x[2,1]    allocateEach[1]  1
    x[2,1]    findWorstP[1,2]  -8.7189271292557338e-02
    x[2,1]    findWorstP[2,1]  6.3598800939803947e-03
    x[2,1]    findWorstP[2,3]  6.3598800939803947e-03
    x[2,1]    findWorstP[3,2]  -2.9910842680471679e-02
    x[2,2]    allocateEach[2]  1
    x[2,2]    findWorstP[1,2]  -9.0069647686437229e-02
    x[2,2]    findWorstP[2,1]  3.9158497393934491e-03
    x[2,2]    findWorstP[2,3]  3.9158497393934491e-03
    x[2,2]    findWorstP[3,2]  -2.0641136258047390e-02
    x[2,3]    allocateEach[3]  1
    x[2,3]    findWorstP[1,2]  -0.0233301226243841
    x[2,3]    findWorstP[2,1]  1.0903616084690378e-01
    x[2,3]    findWorstP[2,3]  1.0903616084690378e-01
    x[2,3]    findWorstP[3,2]  -4.8007787438331022e-03
    x[2,4]    allocateEach[4]  1
    x[2,4]    findWorstP[1,2]  -6.0682399140517915e-02
    x[2,4]    findWorstP[2,1]  1.2621188797969160e-01
    x[2,4]    findWorstP[2,3]  1.2621188797969160e-01
    x[2,4]    findWorstP[3,2]  -5.9438213018886028e-02
    x[2,5]    allocateEach[5]  1
    x[2,5]    findWorstP[1,2]  -1.6448708924535992e-02
    x[2,5]    findWorstP[2,1]  4.9042642253368983e-02
    x[2,5]    findWorstP[2,3]  4.9042642253368983e-02
    x[2,5]    findWorstP[3,2]  -5.2329225754592458e-02
    x[2,6]    allocateEach[6]  1
    x[2,6]    findWorstP[1,2]  -8.4207016633942131e-02
    x[2,6]    findWorstP[2,1]  6.4395473817818474e-02
    x[2,6]    findWorstP[2,3]  6.4395473817818474e-02
    x[2,6]    findWorstP[3,2]  -6.0522259832009630e-02
    x[2,7]    allocateEach[7]  1
    x[2,7]    findWorstP[1,2]  -6.6582076834734938e-02
    x[2,7]    findWorstP[2,1]  8.4433822139404244e-02
    x[2,7]    findWorstP[2,3]  8.4433822139404244e-02
    x[2,7]    findWorstP[3,2]  -4.8317515099223475e-02
    x[2,8]    allocateEach[8]  1
    x[2,8]    findWorstP[1,2]  -7.3806171970510884e-02
    x[2,8]    findWorstP[2,1]  1.8796078749088552e-02
    x[2,8]    findWorstP[2,3]  1.8796078749088552e-02
    x[2,8]    findWorstP[3,2]  -0.0555076215127984
    x[2,9]    allocateEach[9]  1
    x[2,9]    findWorstP[1,2]  -1.5374356314600082e-03
    x[2,9]    findWorstP[2,1]  0.0997731507737179
    x[2,9]    findWorstP[2,3]  0.0997731507737179
    x[2,9]    findWorstP[3,2]  -6.1104842813212108e-02
    x[2,10]   allocateEach[10]  1
    x[2,10]   findWorstP[1,2]  -7.2935575890045568e-02
    x[2,10]   findWorstP[2,1]  1.3516433065975317e-02
    x[2,10]   findWorstP[2,3]  1.3516433065975317e-02
    x[2,10]   findWorstP[3,2]  -3.9475527827555444e-02
    x[2,11]   allocateEach[11]  1
    x[2,11]   findWorstP[1,2]  -4.5289519505056870e-03
    x[2,11]   findWorstP[2,1]  3.0746171919306491e-02
    x[2,11]   findWorstP[2,3]  3.0746171919306491e-02
    x[2,11]   findWorstP[3,2]  -4.2550681032130562e-02
    x[2,12]   allocateEach[12]  1
    x[2,12]   findWorstP[1,2]  -8.3216018967880556e-02
    x[2,12]   findWorstP[2,1]  8.1827756623187239e-03
    x[2,12]   findWorstP[2,3]  8.1827756623187239e-03
    x[2,12]   findWorstP[3,2]  -6.4887944956969992e-02
    x[2,13]   allocateEach[13]  1
    x[2,13]   findWorstP[1,2]  -1.9449486904012152e-04
    x[2,13]   findWorstP[2,1]  2.3684139458262445e-02
    x[2,13]   findWorstP[2,3]  2.3684139458262445e-02
    x[2,13]   findWorstP[3,2]  -7.0389298171869369e-02
    x[2,14]   allocateEach[14]  1
    x[2,14]   findWorstP[1,2]  -3.1693401993109327e-02
    x[2,14]   findWorstP[2,1]  8.8187636717167631e-02
    x[2,14]   findWorstP[2,3]  8.8187636717167631e-02
    x[2,14]   findWorstP[3,2]  -0.0689365279529214
    x[2,15]   allocateEach[15]  1
    x[2,15]   findWorstP[1,2]  -6.0617567517504536e-02
    x[2,15]   findWorstP[2,1]  0.0480569283534527
    x[2,15]   findWorstP[2,3]  0.0480569283534527
    x[2,15]   findWorstP[3,2]  -7.0389298171869369e-02
    x[2,16]   allocateEach[16]  1
    x[2,16]   findWorstP[1,2]  -2.8035046123068948e-02
    x[2,16]   findWorstP[2,1]  1.8539523076507605e-02
    x[2,16]   findWorstP[2,3]  1.8539523076507605e-02
    x[2,16]   findWorstP[3,2]  -7.0168064128374757e-02
    x[2,17]   allocateEach[17]  1
    x[2,17]   findWorstP[1,2]  -2.4497091838624831e-02
    x[2,17]   findWorstP[2,1]  5.7454967727996978e-02
    x[2,17]   findWorstP[2,3]  5.7454967727996978e-02
    x[2,17]   findWorstP[3,2]  -4.0611195917494458e-02
    x[2,18]   allocateEach[18]  1
    x[2,18]   findWorstP[1,2]  -8.7402289482458415e-02
    x[2,18]   findWorstP[2,1]  0.083866699073699
    x[2,18]   findWorstP[2,3]  0.083866699073699
    x[2,18]   findWorstP[3,2]  -6.8435064121000283e-02
    x[2,19]   allocateEach[19]  1
    x[2,19]   findWorstP[1,2]  -7.5241729337235580e-02
    x[2,19]   findWorstP[2,1]  2.5290988144427342e-02
    x[2,19]   findWorstP[2,3]  2.5290988144427342e-02
    x[2,19]   findWorstP[3,2]  -4.9460557657278977e-02
    x[3,1]    allocateEach[1]  1
    x[3,1]    findWorstP[1,3]  -8.7189271292557338e-02
    x[3,1]    findWorstP[2,3]  -6.3598800939803947e-03
    x[3,1]    findWorstP[3,1]  2.9910842680471679e-02
    x[3,1]    findWorstP[3,2]  2.9910842680471679e-02
    x[3,2]    allocateEach[2]  1
    x[3,2]    findWorstP[1,3]  -9.0069647686437229e-02
    x[3,2]    findWorstP[2,3]  -3.9158497393934491e-03
    x[3,2]    findWorstP[3,1]  2.0641136258047390e-02
    x[3,2]    findWorstP[3,2]  2.0641136258047390e-02
    x[3,3]    allocateEach[3]  1
    x[3,3]    findWorstP[1,3]  -0.0233301226243841
    x[3,3]    findWorstP[2,3]  -1.0903616084690378e-01
    x[3,3]    findWorstP[3,1]  4.8007787438331022e-03
    x[3,3]    findWorstP[3,2]  4.8007787438331022e-03
    x[3,4]    allocateEach[4]  1
    x[3,4]    findWorstP[1,3]  -6.0682399140517915e-02
    x[3,4]    findWorstP[2,3]  -1.2621188797969160e-01
    x[3,4]    findWorstP[3,1]  5.9438213018886028e-02
    x[3,4]    findWorstP[3,2]  5.9438213018886028e-02
    x[3,5]    allocateEach[5]  1
    x[3,5]    findWorstP[1,3]  -1.6448708924535992e-02
    x[3,5]    findWorstP[2,3]  -4.9042642253368983e-02
    x[3,5]    findWorstP[3,1]  5.2329225754592458e-02
    x[3,5]    findWorstP[3,2]  5.2329225754592458e-02
    x[3,6]    allocateEach[6]  1
    x[3,6]    findWorstP[1,3]  -8.4207016633942131e-02
    x[3,6]    findWorstP[2,3]  -6.4395473817818474e-02
    x[3,6]    findWorstP[3,1]  6.0522259832009630e-02
    x[3,6]    findWorstP[3,2]  6.0522259832009630e-02
    x[3,7]    allocateEach[7]  1
    x[3,7]    findWorstP[1,3]  -6.6582076834734938e-02
    x[3,7]    findWorstP[2,3]  -8.4433822139404244e-02
    x[3,7]    findWorstP[3,1]  4.8317515099223475e-02
    x[3,7]    findWorstP[3,2]  4.8317515099223475e-02
    x[3,8]    allocateEach[8]  1
    x[3,8]    findWorstP[1,3]  -7.3806171970510884e-02
    x[3,8]    findWorstP[2,3]  -1.8796078749088552e-02
    x[3,8]    findWorstP[3,1]  0.0555076215127984
    x[3,8]    findWorstP[3,2]  0.0555076215127984
    x[3,9]    allocateEach[9]  1
    x[3,9]    findWorstP[1,3]  -1.5374356314600082e-03
    x[3,9]    findWorstP[2,3]  -0.0997731507737179
    x[3,9]    findWorstP[3,1]  6.1104842813212108e-02
    x[3,9]    findWorstP[3,2]  6.1104842813212108e-02
    x[3,10]   allocateEach[10]  1
    x[3,10]   findWorstP[1,3]  -7.2935575890045568e-02
    x[3,10]   findWorstP[2,3]  -1.3516433065975317e-02
    x[3,10]   findWorstP[3,1]  3.9475527827555444e-02
    x[3,10]   findWorstP[3,2]  3.9475527827555444e-02
    x[3,11]   allocateEach[11]  1
    x[3,11]   findWorstP[1,3]  -4.5289519505056870e-03
    x[3,11]   findWorstP[2,3]  -3.0746171919306491e-02
    x[3,11]   findWorstP[3,1]  4.2550681032130562e-02
    x[3,11]   findWorstP[3,2]  4.2550681032130562e-02
    x[3,12]   allocateEach[12]  1
    x[3,12]   findWorstP[1,3]  -8.3216018967880556e-02
    x[3,12]   findWorstP[2,3]  -8.1827756623187239e-03
    x[3,12]   findWorstP[3,1]  6.4887944956969992e-02
    x[3,12]   findWorstP[3,2]  6.4887944956969992e-02
    x[3,13]   allocateEach[13]  1
    x[3,13]   findWorstP[1,3]  -1.9449486904012152e-04
    x[3,13]   findWorstP[2,3]  -2.3684139458262445e-02
    x[3,13]   findWorstP[3,1]  7.0389298171869369e-02
    x[3,13]   findWorstP[3,2]  7.0389298171869369e-02
    x[3,14]   allocateEach[14]  1
    x[3,14]   findWorstP[1,3]  -3.1693401993109327e-02
    x[3,14]   findWorstP[2,3]  -8.8187636717167631e-02
    x[3,14]   findWorstP[3,1]  0.0689365279529214
    x[3,14]   findWorstP[3,2]  0.0689365279529214
    x[3,15]   allocateEach[15]  1
    x[3,15]   findWorstP[1,3]  -6.0617567517504536e-02
    x[3,15]   findWorstP[2,3]  -0.0480569283534527
    x[3,15]   findWorstP[3,1]  7.0389298171869369e-02
    x[3,15]   findWorstP[3,2]  7.0389298171869369e-02
    x[3,16]   allocateEach[16]  1
    x[3,16]   findWorstP[1,3]  -2.8035046123068948e-02
    x[3,16]   findWorstP[2,3]  -1.8539523076507605e-02
    x[3,16]   findWorstP[3,1]  7.0168064128374757e-02
    x[3,16]   findWorstP[3,2]  7.0168064128374757e-02
    x[3,17]   allocateEach[17]  1
    x[3,17]   findWorstP[1,3]  -2.4497091838624831e-02
    x[3,17]   findWorstP[2,3]  -5.7454967727996978e-02
    x[3,17]   findWorstP[3,1]  4.0611195917494458e-02
    x[3,17]   findWorstP[3,2]  4.0611195917494458e-02
    x[3,18]   allocateEach[18]  1
    x[3,18]   findWorstP[1,3]  -8.7402289482458415e-02
    x[3,18]   findWorstP[2,3]  -0.083866699073699
    x[3,18]   findWorstP[3,1]  6.8435064121000283e-02
    x[3,18]   findWorstP[3,2]  6.8435064121000283e-02
    x[3,19]   allocateEach[19]  1
    x[3,19]   findWorstP[1,3]  -7.5241729337235580e-02
    x[3,19]   findWorstP[2,3]  -2.5290988144427342e-02
    x[3,19]   findWorstP[3,1]  4.9460557657278977e-02
    x[3,19]   findWorstP[3,2]  4.9460557657278977e-02
    MARKER    'MARKER'                 'INTEND'
RHS
    RHS1      allocateEach[1]  1
    RHS1      allocateEach[2]  1
    RHS1      allocateEach[3]  1
    RHS1      allocateEach[4]  1
    RHS1      allocateEach[5]  1
    RHS1      allocateEach[6]  1
    RHS1      allocateEach[7]  1
    RHS1      allocateEach[8]  1
    RHS1      allocateEach[9]  1
    RHS1      allocateEach[10]  1
    RHS1      allocateEach[11]  1
    RHS1      allocateEach[12]  1
    RHS1      allocateEach[13]  1
    RHS1      allocateEach[14]  1
    RHS1      allocateEach[15]  1
    RHS1      allocateEach[16]  1
    RHS1      allocateEach[17]  1
    RHS1      allocateEach[18]  1
    RHS1      allocateEach[19]  1
    RHS1      allocateAllCash  1
BOUNDS
 UP BND1      z         1
 MI BND1      cashProportion[1]
 UP BND1      cashProportion[1]  1
 MI BND1      cashProportion[2]
 UP BND1      cashProportion[2]  1
 MI BND1      cashProportion[3]
 UP BND1      cashProportion[3]  1
 BV BND1      x[1,1]  
 BV BND1      x[1,2]  
 BV BND1      x[1,3]  
 BV BND1      x[1,4]  
 BV BND1      x[1,5]  
 BV BND1      x[1,6]  
 BV BND1      x[1,7]  
 BV BND1      x[1,8]  
 BV BND1      x[1,9]  
 BV BND1      x[1,10] 
 BV BND1      x[1,11] 
 BV BND1      x[1,12] 
 BV BND1      x[1,13] 
 BV BND1      x[1,14] 
 BV BND1      x[1,15] 
 BV BND1      x[1,16] 
 BV BND1      x[1,17] 
 BV BND1      x[1,18] 
 BV BND1      x[1,19] 
 BV BND1      x[2,1]  
 BV BND1      x[2,2]  
 BV BND1      x[2,3]  
 BV BND1      x[2,4]  
 BV BND1      x[2,5]  
 BV BND1      x[2,6]  
 BV BND1      x[2,7]  
 BV BND1      x[2,8]  
 BV BND1      x[2,9]  
 BV BND1      x[2,10] 
 BV BND1      x[2,11] 
 BV BND1      x[2,12] 
 BV BND1      x[2,13] 
 BV BND1      x[2,14] 
 BV BND1      x[2,15] 
 BV BND1      x[2,16] 
 BV BND1      x[2,17] 
 BV BND1      x[2,18] 
 BV BND1      x[2,19] 
 BV BND1      x[3,1]  
 BV BND1      x[3,2]  
 BV BND1      x[3,3]  
 BV BND1      x[3,4]  
 BV BND1      x[3,5]  
 BV BND1      x[3,6]  
 BV BND1      x[3,7]  
 BV BND1      x[3,8]  
 BV BND1      x[3,9]  
 BV BND1      x[3,10] 
 BV BND1      x[3,11] 
 BV BND1      x[3,12] 
 BV BND1      x[3,13] 
 BV BND1      x[3,14] 
 BV BND1      x[3,15] 
 BV BND1      x[3,16] 
 BV BND1      x[3,17] 
 BV BND1      x[3,18] 
 BV BND1      x[3,19] 
ENDATA
